17	4
21	24	25	27	
0	0	0	0	0	3	2	3	4	
9	0	9	0	6	1	13	
3	0	6	3	9	2	5	6	
9	0	5	1	10	2	8	12	
2	2	4	0	0	3	7	13	17	
175	0	10	8	6	2	17	17	
250	4	6	9	9	3	9	15	17	
175	0	4	6	10	3	10	11	17	
75	5	4	0	0	3	10	11	17	
175	0	0	10	9	1	17	
125	1	0	4	10	2	17	17	
175	0	9	9	5	3	13	14	17	
10	1	5	5	6	3	17	17	17	
9	7	3	2	7	1	16	
2	5	7	8	6	2	17	17	
1	4	0	1	5	2	17	17	
0	0	0	0	0	0	
